(set-info :smt-lib-version 2.6)
(set-info :category "crafted")
(set-logic QF_FF)
(define-sort FF0 () (_ FiniteField 52435875175126190479447740508185965837690552500527637822603658699938581184513))
(declare-fun return_n5_alt () FF0)
(declare-fun mul_n11_alt () FF0)
(declare-fun is_zero_n10_alt () FF0)
(declare-fun a_n0_alt () FF0)
(declare-fun mul_n13_alt () FF0)
(declare-fun mul_n12_alt () FF0)
(declare-fun d_n3_alt () FF0)
(declare-fun e_n2_alt () FF0)
(declare-fun g_n7_alt () FF0)
(declare-fun b_n6_alt () FF0)
(declare-fun f_n1_alt () FF0)
(declare-fun c_n4_alt () FF0)
(declare-fun h_n8_alt () FF0)
(declare-fun is_zero_inv_n9_alt () FF0)
(declare-fun return_n5 () FF0)
(declare-fun mul_n11 () FF0)
(declare-fun is_zero_n10 () FF0)
(declare-fun a_n0 () FF0)
(declare-fun mul_n13 () FF0)
(declare-fun mul_n12 () FF0)
(declare-fun d_n3 () FF0)
(declare-fun e_n2 () FF0)
(declare-fun g_n7 () FF0)
(declare-fun b_n6 () FF0)
(declare-fun f_n1 () FF0)
(declare-fun c_n4 () FF0)
(declare-fun h_n8 () FF0)
(declare-fun is_zero_inv_n9 () FF0)
(assert 
  (let ((let0 (as ff1 FF0)))
  (let ((let1 (as ff52435875175126190479447740508185965837690552500527637822603658699938581184512 FF0)))
  (let ((let2 return_n5_alt))
  (let ((let3 (ff.mul let2 let1)))
  (let ((let4 (ff.add let3 let0)))
  (let ((let5 mul_n11_alt))
  (let ((let6 (ff.mul let5 let1)))
  (let ((let7 is_zero_n10_alt))
  (let ((let8 (ff.mul let7 let1)))
  (let ((let9 a_n0_alt))
  (let ((let10 (ff.add let9 let8 let6 let0)))
  (let ((let11 mul_n13_alt))
  (let ((let12 (ff.mul let11 let10)))
  (let ((let13 (= let12 let4)))
  (let ((let14 mul_n12_alt))
  (let ((let15 d_n3_alt))
  (let ((let16 (ff.mul let15 let1)))
  (let ((let17 (ff.add let16 let0)))
  (let ((let18 (ff.mul let17 let14)))
  (let ((let19 (= let18 let11)))
  (let ((let20 e_n2_alt))
  (let ((let21 (ff.mul let20 let1)))
  (let ((let22 (ff.add let21 let0)))
  (let ((let23 g_n7_alt))
  (let ((let24 (ff.mul let23 let22)))
  (let ((let25 (= let24 let14)))
  (let ((let26 (as ff2 FF0)))
  (let ((let27 (as ff52435875175126190479447740508185965837690552500527637822603658699938581184511 FF0)))
  (let ((let28 (ff.mul let7 let27)))
  (let ((let29 (ff.add let28 let26)))
  (let ((let30 (ff.mul let29 let9)))
  (let ((let31 (= let30 let5)))
  (let ((let32 (as ff0 FF0)))
  (let ((let33 b_n6_alt))
  (let ((let34 f_n1_alt))
  (let ((let35 c_n4_alt))
  (let ((let36 (ff.mul let35 let26)))
  (let ((let37 h_n8_alt))
  (let ((let38 (ff.add let37 let20 let36 let34 let33)))
  (let ((let39 (ff.mul let7 let38)))
  (let ((let40 (= let39 let32)))
  (let ((let41 (ff.add let8 let0)))
  (let ((let42 is_zero_inv_n9_alt))
  (let ((let43 (ff.mul let42 let38)))
  (let ((let44 (= let43 let41)))
  (let ((let45 (and let44 let40 let31 let25 let19 let13)))
  (let ((let46 return_n5))
  (let ((let47 (ff.mul let46 let1)))
  (let ((let48 (ff.add let47 let0)))
  (let ((let49 mul_n11))
  (let ((let50 (ff.mul let49 let1)))
  (let ((let51 is_zero_n10))
  (let ((let52 (ff.mul let51 let1)))
  (let ((let53 a_n0))
  (let ((let54 (ff.add let53 let52 let50 let0)))
  (let ((let55 mul_n13))
  (let ((let56 (ff.mul let55 let54)))
  (let ((let57 (= let56 let48)))
  (let ((let58 mul_n12))
  (let ((let59 d_n3))
  (let ((let60 (ff.mul let59 let1)))
  (let ((let61 (ff.add let60 let0)))
  (let ((let62 (ff.mul let61 let58)))
  (let ((let63 (= let62 let55)))
  (let ((let64 e_n2))
  (let ((let65 (ff.mul let64 let1)))
  (let ((let66 (ff.add let65 let0)))
  (let ((let67 g_n7))
  (let ((let68 (ff.mul let67 let66)))
  (let ((let69 (= let68 let58)))
  (let ((let70 (ff.mul let51 let27)))
  (let ((let71 (ff.add let70 let26)))
  (let ((let72 (ff.mul let71 let53)))
  (let ((let73 (= let72 let49)))
  (let ((let74 b_n6))
  (let ((let75 f_n1))
  (let ((let76 c_n4))
  (let ((let77 (ff.mul let76 let26)))
  (let ((let78 h_n8))
  (let ((let79 (ff.add let78 let64 let77 let75 let74)))
  (let ((let80 (ff.mul let51 let79)))
  (let ((let81 (= let80 let32)))
  (let ((let82 (ff.add let52 let0)))
  (let ((let83 is_zero_inv_n9))
  (let ((let84 (ff.mul let83 let79)))
  (let ((let85 (= let84 let82)))
  (let ((let86 (and let85 let81 let73 let69 let63 let57)))
  (let ((let87 (= let46 let2)))
  (let ((let88 (not let87)))
  (let ((let89 (= let67 let23)))
  (let ((let90 (= let75 let34)))
  (let ((let91 (= let53 let9)))
  (let ((let92 (= let78 let37)))
  (let ((let93 (= let74 let33)))
  (let ((let94 (= let59 let15)))
  (let ((let95 (= let64 let20)))
  (let ((let96 (= let76 let35)))
  (let ((let97 (and let96 let95 let94 let93 let92 let91 let90 let89)))
  (let ((let98 (and let97 let88 let86 let45)))
  let98
)))))))))))))))))))))))))))))))))))))))))))))))))))))))))))))))))))))))))))))))))))))))))))))))))))
)
(check-sat)
